NAME : rat195Preorder.1158.tour
COMMENT : Length = 1158
COMMENT : Found by LKH [Keld Helsgaun] Fri May  1 20:10:57 2020
TYPE : TOUR
DIMENSION : 195
TOUR_SECTION
1
15
14
27
28
29
16
17
18
19
20
21
34
33
32
31
30
44
43
42
41
40
53
54
55
56
57
58
71
70
69
68
67
66
79
80
81
82
83
84
97
96
95
94
93
92
105
106
107
108
109
110
111
98
99
100
101
112
113
114
127
126
125
124
123
122
121
120
119
118
131
132
133
134
135
136
149
148
147
146
145
144
158
157
170
171
183
184
185
186
187
188
189
190
191
192
193
194
195
182
181
169
168
167
180
179
178
177
176
175
174
173
172
159
160
161
162
163
164
165
166
153
152
151
150
137
138
139
140
141
154
155
156
143
142
128
129
130
117
116
115
102
103
104
91
90
89
88
87
86
85
72
73
74
75
76
77
78
65
64
63
62
61
60
59
45
46
47
48
49
50
51
52
39
38
37
36
35
22
23
24
25
26
13
12
11
10
9
8
7
6
5
4
3
2
-1
EOF
